40
1 0 6
2 0 3
2 1 18
3 0 21
3 1 14
3 2 21
4 0 12
4 1 18
4 2 22
4 3 17
5 0 16
5 1 18
5 2 6
5 3 3
5 4 11
6 0 4
6 1 1
6 2 20
6 3 6
6 4 2
6 5 19
7 0 11
7 1 13
7 2 3
7 3 9
7 4 2
7 5 22
7 6 9
8 0 10
8 1 5
8 2 19
8 3 4
8 4 10
8 5 20
8 6 14
8 7 15
9 0 8
9 1 17
9 2 10
9 3 1
9 4 9
9 5 16
9 6 7
9 7 1
9 8 2
10 0 4
10 1 17
10 2 14
10 3 9
10 4 19
10 5 1
10 6 8
10 7 17
10 8 2
10 9 8
11 0 2
11 1 16
11 2 4
11 3 5
11 4 12
11 5 8
11 6 10
11 7 4
11 8 11
11 9 12
11 10 6
12 0 4
12 1 5
12 2 8
12 3 20
12 4 2
12 5 14
12 6 8
12 7 4
12 8 11
12 9 3
12 10 8
12 11 3
13 0 2
13 1 5
13 2 6
13 3 7
13 4 2
13 5 3
13 6 20
13 7 10
13 8 1
13 9 13
13 10 4
13 11 4
13 12 5
14 0 16
14 1 16
14 2 16
14 3 13
14 4 11
14 5 5
14 6 5
14 7 15
14 8 5
14 9 13
14 10 8
14 11 8
14 12 11
14 13 9
15 0 10
15 1 2
15 2 13
15 3 22
15 4 16
15 5 13
15 6 10
15 7 1
15 8 9
15 9 22
15 10 15
15 11 8
15 12 15
15 13 18
15 14 16
16 0 5
16 1 13
16 2 3
16 3 6
16 4 20
16 5 3
16 6 22
16 7 4
16 8 3
16 9 10
16 10 20
16 11 12
16 12 7
16 13 6
16 14 1
16 15 3
17 0 4
17 1 15
17 2 11
17 3 11
17 4 21
17 5 11
17 6 4
17 7 6
17 8 2
17 9 1
17 10 6
17 11 6
17 12 14
17 13 4
17 14 5
17 15 20
17 16 4
18 0 21
18 1 9
18 2 18
18 3 7
18 4 19
18 5 12
18 6 20
18 7 21
18 8 22
18 9 21
18 10 17
18 11 6
18 12 11
18 13 18
18 14 11
18 15 6
18 16 11
18 17 16
19 0 22
19 1 21
19 2 8
19 3 11
19 4 19
19 5 20
19 6 20
19 7 9
19 8 14
19 9 12
19 10 9
19 11 9
19 12 19
19 13 9
19 14 11
19 15 10
19 16 21
19 17 2
19 18 14
20 0 12
20 1 1
20 2 8
20 3 14
20 4 9
20 5 15
20 6 11
20 7 5
20 8 6
20 9 4
20 10 8
20 11 8
20 12 13
20 13 19
20 14 16
20 15 1
20 16 17
20 17 2
20 18 22
20 19 13
21 0 19
21 1 11
21 2 11
21 3 5
21 4 16
21 5 14
21 6 8
21 7 13
21 8 3
21 9 12
21 10 12
21 11 8
21 12 10
21 13 8
21 14 5
21 15 11
21 16 6
21 17 18
21 18 11
21 19 6
21 20 1
22 0 6
22 1 5
22 2 6
22 3 14
22 4 1
22 5 21
22 6 16
22 7 1
22 8 1
22 9 20
22 10 7
22 11 22
22 12 3
22 13 4
22 14 16
22 15 6
22 16 12
22 17 13
22 18 11
22 19 10
22 20 10
22 21 15
23 0 14
23 1 3
23 2 14
23 3 7
23 4 12
23 5 3
23 6 22
23 7 8
23 8 19
23 9 17
23 10 14
23 11 15
23 12 5
23 13 2
23 14 3
23 15 5
23 16 11
23 17 2
23 18 13
23 19 7
23 20 10
23 21 7
23 22 20
24 0 21
24 1 8
24 2 12
24 3 10
24 4 17
24 5 11
24 6 16
24 7 21
24 8 17
24 9 3
24 10 13
24 11 4
24 12 16
24 13 3
24 14 2
24 15 22
24 16 14
24 17 22
24 18 3
24 19 12
24 20 15
24 21 15
24 22 1
24 23 22
25 0 6
25 1 20
25 2 12
25 3 18
25 4 2
25 5 1
25 6 6
25 7 16
25 8 12
25 9 17
25 10 14
25 11 10
25 12 15
25 13 20
25 14 12
25 15 7
25 16 21
25 17 10
25 18 5
25 19 7
25 20 13
25 21 14
25 22 18
25 23 19
25 24 8
26 0 2
26 1 20
26 2 5
26 3 10
26 4 4
26 5 11
26 6 3
26 7 18
26 8 12
26 9 18
26 10 15
26 11 6
26 12 7
26 13 12
26 14 14
26 15 8
26 16 6
26 17 4
26 18 5
26 19 10
26 20 5
26 21 20
26 22 6
26 23 11
26 24 7
26 25 18
27 0 21
27 1 8
27 2 16
27 3 13
27 4 10
27 5 5
27 6 9
27 7 20
27 8 6
27 9 8
27 10 20
27 11 3
27 12 10
27 13 13
27 14 11
27 15 5
27 16 10
27 17 2
27 18 4
27 19 17
27 20 9
27 21 8
27 22 7
27 23 12
27 24 18
27 25 5
27 26 18
28 0 3
28 1 14
28 2 17
28 3 6
28 4 10
28 5 3
28 6 13
28 7 5
28 8 7
28 9 6
28 10 10
28 11 16
28 12 4
28 13 10
28 14 1
28 15 3
28 16 14
28 17 14
28 18 13
28 19 20
28 20 22
28 21 6
28 22 1
28 23 17
28 24 19
28 25 20
28 26 3
28 27 21
29 0 16
29 1 20
29 2 11
29 3 11
29 4 22
29 5 18
29 6 6
29 7 5
29 8 16
29 9 10
29 10 4
29 11 7
29 12 14
29 13 13
29 14 22
29 15 14
29 16 20
29 17 21
29 18 7
29 19 15
29 20 15
29 21 14
29 22 19
29 23 13
29 24 4
29 25 16
29 26 20
29 27 4
29 28 20
30 0 18
30 1 20
30 2 14
30 3 6
30 4 13
30 5 1
30 6 20
30 7 16
30 8 8
30 9 14
30 10 21
30 11 12
30 12 19
30 13 6
30 14 8
30 15 17
30 16 6
30 17 9
30 18 8
30 19 9
30 20 20
30 21 8
30 22 16
30 23 16
30 24 8
30 25 15
30 26 7
30 27 21
30 28 6
30 29 16
31 0 12
31 1 2
31 2 22
31 3 13
31 4 8
31 5 13
31 6 14
31 7 22
31 8 4
31 9 20
31 10 8
31 11 16
31 12 11
31 13 9
31 14 17
31 15 8
31 16 5
31 17 16
31 18 2
31 19 21
31 20 1
31 21 9
31 22 6
31 23 16
31 24 1
31 25 9
31 26 1
31 27 9
31 28 16
31 29 9
31 30 19
32 0 19
32 1 3
32 2 22
32 3 3
32 4 18
32 5 14
32 6 18
32 7 7
32 8 17
32 9 10
32 10 18
32 11 2
32 12 13
32 13 22
32 14 6
32 15 1
32 16 6
32 17 21
32 18 7
32 19 11
32 20 14
32 21 11
32 22 15
32 23 20
32 24 5
32 25 15
32 26 4
32 27 21
32 28 19
32 29 9
32 30 12
32 31 12
33 0 3
33 1 8
33 2 8
33 3 6
33 4 21
33 5 14
33 6 19
33 7 14
33 8 3
33 9 7
33 10 2
33 11 13
33 12 13
33 13 20
33 14 14
33 15 5
33 16 4
33 17 3
33 18 2
33 19 21
33 20 6
33 21 11
33 22 10
33 23 10
33 24 3
33 25 11
33 26 17
33 27 17
33 28 20
33 29 20
33 30 14
33 31 17
33 32 17
34 0 15
34 1 7
34 2 4
34 3 5
34 4 20
34 5 9
34 6 3
34 7 7
34 8 11
34 9 1
34 10 2
34 11 6
34 12 16
34 13 13
34 14 2
34 15 18
34 16 14
34 17 10
34 18 13
34 19 8
34 20 10
34 21 4
34 22 15
34 23 4
34 24 13
34 25 18
34 26 2
34 27 19
34 28 18
34 29 19
34 30 2
34 31 6
34 32 21
34 33 7
35 0 3
35 1 12
35 2 21
35 3 22
35 4 6
35 5 22
35 6 4
35 7 11
35 8 13
35 9 14
35 10 10
35 11 17
35 12 8
35 13 4
35 14 21
35 15 13
35 16 14
35 17 7
35 18 1
35 19 18
35 20 2
35 21 10
35 22 21
35 23 3
35 24 4
35 25 7
35 26 14
35 27 13
35 28 14
35 29 16
35 30 21
35 31 3
35 32 6
35 33 17
35 34 12
36 0 3
36 1 20
36 2 6
36 3 15
36 4 22
36 5 8
36 6 21
36 7 4
36 8 12
36 9 1
36 10 19
36 11 19
36 12 16
36 13 21
36 14 9
36 15 10
36 16 11
36 17 9
36 18 12
36 19 20
36 20 14
36 21 6
36 22 6
36 23 3
36 24 8
36 25 17
36 26 16
36 27 2
36 28 22
36 29 3
36 30 12
36 31 13
36 32 1
36 33 1
36 34 18
36 35 2
37 0 16
37 1 11
37 2 18
37 3 11
37 4 19
37 5 2
37 6 21
37 7 20
37 8 19
37 9 15
37 10 16
37 11 5
37 12 22
37 13 3
37 14 15
37 15 17
37 16 11
37 17 6
37 18 22
37 19 21
37 20 19
37 21 9
37 22 8
37 23 16
37 24 13
37 25 7
37 26 11
37 27 7
37 28 1
37 29 2
37 30 16
37 31 9
37 32 11
37 33 12
37 34 8
37 35 3
37 36 9
38 0 17
38 1 1
38 2 20
38 3 21
38 4 16
38 5 8
38 6 12
38 7 9
38 8 1
38 9 10
38 10 2
38 11 2
38 12 2
38 13 8
38 14 22
38 15 22
38 16 13
38 17 6
38 18 16
38 19 21
38 20 18
38 21 3
38 22 22
38 23 9
38 24 14
38 25 16
38 26 13
38 27 19
38 28 17
38 29 3
38 30 11
38 31 11
38 32 10
38 33 6
38 34 11
38 35 1
38 36 4
38 37 7
39 0 20
39 1 7
39 2 19
39 3 4
39 4 14
39 5 19
39 6 8
39 7 13
39 8 6
39 9 19
39 10 6
39 11 15
39 12 3
39 13 16
39 14 17
39 15 21
39 16 11
39 17 7
39 18 16
39 19 4
39 20 14
39 21 4
39 22 1
39 23 22
39 24 1
39 25 8
39 26 19
39 27 11
39 28 16
39 29 2
39 30 22
39 31 12
39 32 13
39 33 19
39 34 12
39 35 17
39 36 10
39 37 17
39 38 20
